# ------------------- INITIAL SETUP -------------------
units       metal
atom_style  charge
boundary    p p p
read_data   cubic-LLZO.data
# ------------------- NEIGHBOR SETTINGS ----------------
neighbor    2.0 bin
neigh_modify delay 0 every 1 check yes

# ------------------- VARIABLES -----------------------
variable    T equal 1000         # target temperature in K
variable    t_run equal 100000   # number of timesteps
variable    simtime equal step*dt

# ------------------- GROUP DEFINITIONS ----------------
group       type1 type 1         # group for Li atoms

# ------------------- FORCE FIELD ---------------------
pair_style      gnnp/gpu gnnp_driver.py
pair_coeff      * * orb orb-v3-conservative-inf-omat Li La Zr O

# ------------------- OUTPUT SETTINGS -----------------
thermo      10
thermo_style custom step temp pe ke etotal press

# Unwrapped COM-removed dump for post-processing
dump        1 all custom 100 dump.lammpstrj id type xu yu zu

# ------------------- COMPUTES ------------------------
# MSD and NGP for Li atoms
compute     msd_type1 type1 msd/nongauss

# ------------------- MSD/NGP OUTPUT ------------------
fix         2 type1 ave/time 10 1 10 v_simtime c_msd_type1[1] c_msd_type1[3] file msd_ngp_Li.txt

# ------------------- MINIMIZATION --------------------
min_style   cg
minimize    1e-10 1e-10 10000 10000

# ------------------- INITIAL VELOCITIES --------------
velocity    all create ${T} 12345 mom yes rot yes dist gaussian

# ------------------- TIME INTEGRATION ----------------
timestep    0.001
fix         1 all nvt temp ${T} ${T} 0.1

# ------------------- RUN -----------------------------
run         ${t_run}

